c CNF file corresponding to a (partial) station packing problem.
p cnf 3541 229
1 2 3 4 5 6 7 8 9 10 11 12 13 14 0
-1 -2 0
-1 -3 0
-1 -4 0
-1 -5 0
-1 -6 0
-1 -7 0
-1 -8 0
-1 -9 0
-1 -10 0
-1 -11 0
-1 -12 0
-1 -13 0
-1 -14 0
-2 -3 0
-2 -4 0
-2 -5 0
-2 -6 0
-2 -7 0
-2 -8 0
-2 -9 0
-2 -10 0
-2 -11 0
-2 -12 0
-2 -13 0
-2 -14 0
-3 -4 0
-3 -5 0
-3 -6 0
-3 -7 0
-3 -8 0
-3 -9 0
-3 -10 0
-3 -11 0
-3 -12 0
-3 -13 0
-3 -14 0
-4 -5 0
-4 -6 0
-4 -7 0
-4 -8 0
-4 -9 0
-4 -10 0
-4 -11 0
-4 -12 0
-4 -13 0
-4 -14 0
-5 -6 0
-5 -7 0
-5 -8 0
-5 -9 0
-5 -10 0
-5 -11 0
-5 -12 0
-5 -13 0
-5 -14 0
-6 -7 0
-6 -8 0
-6 -9 0
-6 -10 0
-6 -11 0
-6 -12 0
-6 -13 0
-6 -14 0
-7 -8 0
-7 -9 0
-7 -10 0
-7 -11 0
-7 -12 0
-7 -13 0
-7 -14 0
-8 -9 0
-8 -10 0
-8 -11 0
-8 -12 0
-8 -13 0
-8 -14 0
-9 -10 0
-9 -11 0
-9 -12 0
-9 -13 0
-9 -14 0
-10 -11 0
-10 -12 0
-10 -13 0
-10 -14 0
-11 -12 0
-11 -13 0
-11 -14 0
-12 -13 0
-12 -14 0
-13 -14 0
3525 3526 3527 3528 3529 3530 3531 3532 3533 3534 3535 3536 3537 3538 3539 3540 3541 0
-3525 -3526 0
-3525 -3527 0
-3525 -3528 0
-3525 -3529 0
-3525 -3530 0
-3525 -3531 0
-3525 -3532 0
-3525 -3533 0
-3525 -3534 0
-3525 -3535 0
-3525 -3536 0
-3525 -3537 0
-3525 -3538 0
-3525 -3539 0
-3525 -3540 0
-3525 -3541 0
-3526 -3527 0
-3526 -3528 0
-3526 -3529 0
-3526 -3530 0
-3526 -3531 0
-3526 -3532 0
-3526 -3533 0
-3526 -3534 0
-3526 -3535 0
-3526 -3536 0
-3526 -3537 0
-3526 -3538 0
-3526 -3539 0
-3526 -3540 0
-3526 -3541 0
-3527 -3528 0
-3527 -3529 0
-3527 -3530 0
-3527 -3531 0
-3527 -3532 0
-3527 -3533 0
-3527 -3534 0
-3527 -3535 0
-3527 -3536 0
-3527 -3537 0
-3527 -3538 0
-3527 -3539 0
-3527 -3540 0
-3527 -3541 0
-3528 -3529 0
-3528 -3530 0
-3528 -3531 0
-3528 -3532 0
-3528 -3533 0
-3528 -3534 0
-3528 -3535 0
-3528 -3536 0
-3528 -3537 0
-3528 -3538 0
-3528 -3539 0
-3528 -3540 0
-3528 -3541 0
-3529 -3530 0
-3529 -3531 0
-3529 -3532 0
-3529 -3533 0
-3529 -3534 0
-3529 -3535 0
-3529 -3536 0
-3529 -3537 0
-3529 -3538 0
-3529 -3539 0
-3529 -3540 0
-3529 -3541 0
-3530 -3531 0
-3530 -3532 0
-3530 -3533 0
-3530 -3534 0
-3530 -3535 0
-3530 -3536 0
-3530 -3537 0
-3530 -3538 0
-3530 -3539 0
-3530 -3540 0
-3530 -3541 0
-3531 -3532 0
-3531 -3533 0
-3531 -3534 0
-3531 -3535 0
-3531 -3536 0
-3531 -3537 0
-3531 -3538 0
-3531 -3539 0
-3531 -3540 0
-3531 -3541 0
-3532 -3533 0
-3532 -3534 0
-3532 -3535 0
-3532 -3536 0
-3532 -3537 0
-3532 -3538 0
-3532 -3539 0
-3532 -3540 0
-3532 -3541 0
-3533 -3534 0
-3533 -3535 0
-3533 -3536 0
-3533 -3537 0
-3533 -3538 0
-3533 -3539 0
-3533 -3540 0
-3533 -3541 0
-3534 -3535 0
-3534 -3536 0
-3534 -3537 0
-3534 -3538 0
-3534 -3539 0
-3534 -3540 0
-3534 -3541 0
-3535 -3536 0
-3535 -3537 0
-3535 -3538 0
-3535 -3539 0
-3535 -3540 0
-3535 -3541 0
-3536 -3537 0
-3536 -3538 0
-3536 -3539 0
-3536 -3540 0
-3536 -3541 0
-3537 -3538 0
-3537 -3539 0
-3537 -3540 0
-3537 -3541 0
-3538 -3539 0
-3538 -3540 0
-3538 -3541 0
-3539 -3540 0
-3539 -3541 0
-3540 -3541 0
